<?xml version = "1.0" standalone="yes"?>
<!-- This file has been generated by DOcplex version 2.23.222  -->
<CPLEXSolution version="1.0">
 <header
   problemName="CVRP"
   objectiveValue="15615.3"
  />
 <variables>
  <variable name="x_0_3" index="2" value="1.00000"/>
  <variable name="x_0_4" index="3" value="1.00000"/>
  <variable name="x_0_5" index="4" value="1.00000"/>
  <variable name="x_0_6" index="5" value="1.00000"/>
  <variable name="x_0_7" index="6" value="1.00000"/>
  <variable name="x_0_9" index="8" value="1.00000"/>
  <variable name="x_0_10" index="9" value="1.00000"/>
  <variable name="x_0_11" index="10" value="1.00000"/>
  <variable name="x_0_12" index="11" value="1.00000"/>
  <variable name="x_0_14" index="13" value="1.00000"/>
  <variable name="x_0_16" index="15" value="1.00000"/>
  <variable name="x_0_17" index="16" value="1.00000"/>
  <variable name="x_0_19" index="18" value="1.00000"/>
  <variable name="x_0_20" index="19" value="1.00000"/>
  <variable name="x_0_21" index="20" value="1.00000"/>
  <variable name="x_1_0" index="26" value="1.00000"/>
  <variable name="x_2_15" index="66" value="1.00000"/>
  <variable name="x_3_0" index="78" value="1.00000"/>
  <variable name="x_4_26" index="129" value="1.00000"/>
  <variable name="x_5_1" index="131" value="1.00000"/>
  <variable name="x_6_0" index="156" value="1.00000"/>
  <variable name="x_7_23" index="204" value="1.00000"/>
  <variable name="x_8_0" index="208" value="1.00000"/>
  <variable name="x_9_0" index="234" value="1.00000"/>
  <variable name="x_10_0" index="260" value="1.00000"/>
  <variable name="x_11_24" index="309" value="1.00000"/>
  <variable name="x_12_25" index="336" value="1.00000"/>
  <variable name="x_13_0" index="338" value="1.00000"/>
  <variable name="x_14_0" index="364" value="1.00000"/>
  <variable name="x_15_0" index="390" value="1.00000"/>
  <variable name="x_16_22" index="437" value="1.00000"/>
  <variable name="x_17_0" index="442" value="1.00000"/>
  <variable name="x_18_2" index="470" value="1.00000"/>
  <variable name="x_19_0" index="494" value="1.00000"/>
  <variable name="x_20_0" index="520" value="1.00000"/>
  <variable name="x_21_13" index="559" value="1.00000"/>
  <variable name="x_22_0" index="572" value="1.00000"/>
  <variable name="x_23_18" index="616" value="1.00000"/>
  <variable name="x_24_0" index="624" value="1.00000"/>
  <variable name="x_25_8" index="658" value="1.00000"/>
  <variable name="x_26_0" index="676" value="1.00000"/>
  <variable name="u_1" index="702" value="70.00000"/>
  <variable name="u_2" index="703" value="65.00000"/>
  <variable name="u_3" index="704" value="70.00000"/>
  <variable name="u_4" index="705" value="25.00000"/>
  <variable name="u_5" index="706" value="7.00000"/>
  <variable name="u_6" index="707" value="59.00000"/>
  <variable name="u_7" index="708" value="10.00000"/>
  <variable name="u_8" index="709" value="70.00000"/>
  <variable name="u_9" index="710" value="65.00000"/>
  <variable name="u_10" index="711" value="70.00000"/>
  <variable name="u_11" index="712" value="31.00000"/>
  <variable name="u_12" index="713" value="23.00000"/>
  <variable name="u_13" index="714" value="70.00000"/>
  <variable name="u_14" index="715" value="70.00000"/>
  <variable name="u_15" index="716" value="70.00000"/>
  <variable name="u_16" index="717" value="28.00000"/>
  <variable name="u_17" index="718" value="39.00000"/>
  <variable name="u_18" index="719" value="42.00000"/>
  <variable name="u_19" index="720" value="70.00000"/>
  <variable name="u_20" index="721" value="70.00000"/>
  <variable name="u_21" index="722" value="44.00000"/>
  <variable name="u_22" index="723" value="70.00000"/>
  <variable name="u_23" index="724" value="13.00000"/>
  <variable name="u_24" index="725" value="68.00000"/>
  <variable name="u_25" index="726" value="38.00000"/>
  <variable name="u_26" index="727" value="70.00000"/>
 </variables>
</CPLEXSolution>
